gen	cost
1	21085
2	20910
3	20775
4	20701
5	20540
6	20492
7	20421
8	20271
9	20219
10	20008
11	19888
12	19753
13	19687
14	19576
15	19516
16	19480
17	19463
18	19391
19	19337
20	19268
21	19131
22	19106
23	19027
24	18874
25	18824
26	18740
27	18735
28	18687
29	18635
30	18558
31	18457
32	18379
33	18379
34	18346
35	18310
36	18300
37	18266
38	18191
39	18137
40	18133
41	18094
42	18086
43	18054
44	18040
45	18038
46	18022
47	18014
48	17960
49	17947
50	17921

